(set-logic QF_NRA)
(set-info :smt-lib-version 2.0)
(set-option :produce-models true)
(declare-fun x1 () Real)
(declare-fun x2 () Real)
(declare-fun x3 () Real)
(declare-fun x4 () Real)
(declare-fun x5 () Real)
(declare-fun x6 () Real)
(declare-fun x7 () Real)
(declare-fun x8 () Real)
(declare-fun x9 () Real)
(declare-fun x10 () Real)
(declare-fun x11 () Real)
(assert (< (+ (- 22) (* x1 x1) (* x2 x2) (* x3 x3) (* x4 x4) (* 
x5 x5) (* x6 x6) (* x7 x7) (* x8 x8) (* x9 x9) (* x10 x10) (* x11 x11) ) 0))
(assert (> (+ (- 1) (* x1 x2 x3 x4 x5 x6 x7 x8 x9 x10 x11)) 0))
(check-sat)
(get-model)
